&control
    calculation='bands'
    pseudo_dir = 'pseudo/',
    outdir='output/'
    prefix='ag'
! Write kpoints to single file
!    lkpoint_dir=.FALSE.
 /
 &system
    ibrav = 2,
    A = 4.16273
    nat = 1,
    ntyp = 1,
    ecutwfc = 40.0
    occupations='smearing'
    smearing='marzari-vanderbilt'
    degauss=0.05
 /
 &electrons
    diagonalization='david'
 /
ATOMIC_SPECIES
 Ag  107.8682 Ag.pbe-d-rrkjus.UPF
ATOMIC_POSITIONS
 Ag 0.00 0.00 0.00
K_POINTS
210
0.000 0.000 0.000 1.0
-0.000 0.049 0.000 1.0
-0.000 0.097 0.000 1.0
-0.000 0.146 0.000 1.0
-0.000 0.195 0.000 1.0
-0.000 0.244 0.000 1.0
-0.000 0.292 0.000 1.0
-0.000 0.341 0.000 1.0
-0.000 0.390 0.000 1.0
-0.000 0.438 0.000 1.0
-0.000 0.487 0.000 1.0
-0.000 0.536 0.000 1.0
-0.000 0.585 0.000 1.0
-0.000 0.633 0.000 1.0
-0.000 0.682 0.000 1.0
-0.000 0.731 0.000 1.0
-0.000 0.779 0.000 1.0
-0.000 0.828 0.000 1.0
-0.000 0.877 0.000 1.0
-0.000 0.925 0.000 1.0
-0.000 0.974 0.000 1.0
-0.000 1.023 0.000 1.0
-0.000 1.072 0.000 1.0
-0.000 1.120 0.000 1.0
-0.000 1.169 0.000 1.0
-0.000 1.218 0.000 1.0
-0.000 1.266 0.000 1.0
-0.000 1.315 0.000 1.0
-0.000 1.364 0.000 1.0
-0.000 1.413 0.000 1.0
-0.000 1.461 0.000 1.0
-0.000 1.510 0.000 1.0
-0.000 1.510 0.000 1.0
0.047 1.510 0.000 1.0
0.094 1.510 0.000 1.0
0.142 1.510 0.000 1.0
0.189 1.510 0.000 1.0
0.236 1.510 0.000 1.0
0.283 1.510 0.000 1.0
0.330 1.510 0.000 1.0
0.378 1.510 0.000 1.0
0.425 1.510 0.000 1.0
0.472 1.510 0.000 1.0
0.519 1.510 0.000 1.0
0.566 1.510 0.000 1.0
0.613 1.510 0.000 1.0
0.661 1.510 0.000 1.0
0.708 1.510 0.000 1.0
0.755 1.510 0.000 1.0
0.755 1.510 0.000 1.0
0.789 1.476 0.000 1.0
0.824 1.441 0.000 1.0
0.858 1.407 0.000 1.0
0.892 1.373 0.000 1.0
0.927 1.338 0.000 1.0
0.961 1.304 0.000 1.0
0.995 1.270 0.000 1.0
1.030 1.235 0.000 1.0
1.064 1.201 0.000 1.0
1.098 1.167 0.000 1.0
1.133 1.133 0.000 1.0
1.133 1.133 0.000 1.0
1.098 1.098 0.000 1.0
1.064 1.064 0.000 1.0
1.030 1.030 0.000 1.0
0.995 0.995 0.000 1.0
0.961 0.961 0.000 1.0
0.927 0.927 0.000 1.0
0.892 0.892 0.000 1.0
0.858 0.858 0.000 1.0
0.824 0.824 0.000 1.0
0.789 0.789 0.000 1.0
0.755 0.755 0.000 1.0
0.721 0.721 0.000 1.0
0.686 0.686 0.000 1.0
0.652 0.652 0.000 1.0
0.618 0.618 0.000 1.0
0.583 0.583 0.000 1.0
0.549 0.549 0.000 1.0
0.515 0.515 0.000 1.0
0.480 0.480 0.000 1.0
0.446 0.446 0.000 1.0
0.412 0.412 0.000 1.0
0.378 0.378 0.000 1.0
0.343 0.343 0.000 1.0
0.309 0.309 0.000 1.0
0.275 0.275 0.000 1.0
0.240 0.240 0.000 1.0
0.206 0.206 0.000 1.0
0.172 0.172 0.000 1.0
0.137 0.137 0.000 1.0
0.103 0.103 0.000 1.0
0.069 0.069 0.000 1.0
0.034 0.034 0.000 1.0
0.000 0.000 0.000 1.0
0.000 0.000 0.000 1.0
0.028 0.028 0.028 1.0
0.056 0.056 0.056 1.0
0.084 0.084 0.084 1.0
0.112 0.112 0.112 1.0
0.140 0.140 0.140 1.0
0.168 0.168 0.168 1.0
0.196 0.196 0.196 1.0
0.224 0.224 0.224 1.0
0.252 0.252 0.252 1.0
0.280 0.280 0.280 1.0
0.308 0.308 0.308 1.0
0.336 0.336 0.336 1.0
0.364 0.364 0.364 1.0
0.391 0.391 0.391 1.0
0.419 0.419 0.419 1.0
0.447 0.447 0.447 1.0
0.475 0.475 0.475 1.0
0.503 0.503 0.503 1.0
0.531 0.531 0.531 1.0
0.559 0.559 0.559 1.0
0.587 0.587 0.587 1.0
0.615 0.615 0.615 1.0
0.643 0.643 0.643 1.0
0.671 0.671 0.671 1.0
0.699 0.699 0.699 1.0
0.727 0.727 0.727 1.0
0.755 0.755 0.755 1.0
0.755 0.755 0.755 1.0
0.735 0.795 0.735 1.0
0.715 0.834 0.715 1.0
0.695 0.874 0.695 1.0
0.676 0.914 0.676 1.0
0.656 0.954 0.656 1.0
0.636 0.993 0.636 1.0
0.616 1.033 0.616 1.0
0.596 1.073 0.596 1.0
0.576 1.113 0.576 1.0
0.556 1.152 0.556 1.0
0.536 1.192 0.536 1.0
0.517 1.232 0.517 1.0
0.497 1.272 0.497 1.0
0.477 1.311 0.477 1.0
0.457 1.351 0.457 1.0
0.437 1.391 0.437 1.0
0.417 1.431 0.417 1.0
0.397 1.470 0.397 1.0
0.378 1.510 0.378 1.0
0.378 1.510 0.378 1.0
0.412 1.510 0.343 1.0
0.446 1.510 0.309 1.0
0.480 1.510 0.275 1.0
0.515 1.510 0.240 1.0
0.549 1.510 0.206 1.0
0.583 1.510 0.172 1.0
0.618 1.510 0.137 1.0
0.652 1.510 0.103 1.0
0.686 1.510 0.069 1.0
0.721 1.510 0.034 1.0
0.755 1.510 0.000 1.0
0.755 1.510 0.000 1.0
0.755 1.476 0.034 1.0
0.755 1.441 0.069 1.0
0.755 1.407 0.103 1.0
0.755 1.373 0.137 1.0
0.755 1.338 0.172 1.0
0.755 1.304 0.206 1.0
0.755 1.270 0.240 1.0
0.755 1.235 0.275 1.0
0.755 1.201 0.309 1.0
0.755 1.167 0.343 1.0
0.755 1.133 0.378 1.0
0.755 1.098 0.412 1.0
0.755 1.064 0.446 1.0
0.755 1.030 0.480 1.0
0.755 0.995 0.515 1.0
0.755 0.961 0.549 1.0
0.755 0.927 0.583 1.0
0.755 0.892 0.618 1.0
0.755 0.858 0.652 1.0
0.755 0.824 0.686 1.0
0.755 0.789 0.721 1.0
0.755 0.755 0.755 1.0
0.755 0.755 0.755 1.0
0.775 0.775 0.715 1.0
0.795 0.795 0.676 1.0
0.815 0.815 0.636 1.0
0.834 0.834 0.596 1.0
0.854 0.854 0.556 1.0
0.874 0.874 0.517 1.0
0.894 0.894 0.477 1.0
0.914 0.914 0.437 1.0
0.934 0.934 0.397 1.0
0.954 0.954 0.358 1.0
0.974 0.974 0.318 1.0
0.993 0.993 0.278 1.0
1.013 1.013 0.238 1.0
1.033 1.033 0.199 1.0
1.053 1.053 0.159 1.0
1.073 1.073 0.119 1.0
1.093 1.093 0.079 1.0
1.113 1.113 0.040 1.0
1.133 1.133 0.000 1.0
0.378 1.510 0.378 1.0
0.343 1.510 0.343 1.0
0.309 1.510 0.309 1.0
0.275 1.510 0.275 1.0
0.240 1.510 0.240 1.0
0.206 1.510 0.206 1.0
0.172 1.510 0.172 1.0
0.137 1.510 0.137 1.0
0.103 1.510 0.103 1.0
0.069 1.510 0.069 1.0
0.034 1.510 0.034 1.0
-0.000 1.510 0.000 1.0
