 &control
    calculation='scf'
    pseudo_dir = 'pseudo/',
    outdir='output/',
    prefix='ag'
    restart_mode='from_scratch'
    tprnfor = .true.
    tstress = .true.
 /
 &system
    ibrav = 2,
! From previous calculation
    A = 4.16273, 
    nat=  1,
    ntyp= 1,
    ecutwfc = 40.0,
    occupations='smearing',
    smearing='marzari-vanderbilt',
    degauss=0.05
 /
 &electrons
    diagonalization='david'
 /
ATOMIC_SPECIES
 Ag  107.8682 Ag.pbe-d-rrkjus.UPF
ATOMIC_POSITIONS
 Ag 0.00 0.00 0.00
K_POINTS automatic
 10 10 10 0 0 0
